216 215 214 213 212 211 210 209 208 207 206 205 198 199 200 201 202 204 203 165 154 164 166 167 163 168 169 180 181 179 182 178 177 176 540 539 537 538 187 188 186 185 183 184 197 196 195 194 193 192 191 190 189 227 228 229 230 534 488 489 486 487 535 536 484 485 483 481 482 475 476 480 479 477 478 566 565 564 563 562 561 560 549 548 545 546 547 544 543 541 542 107 109 108 173 174 175 171 170 172 110 111 161 162 160 159 156 155 153 157 158 145 146 147 148 152 149 150 151 142 143 144 141 140 139 136 135 134 133 132 131 113 112 114 115 116 130 137 138 129 128 127 126 125 124 69 70 68 67 66 65 72 71 123 122 117 106 105 104 103 102 98 99 100 101 551 550 559 558 557 552 553 554 556 44 45 46 555 91 92 93 94 97 96 95 118 121 120 119 73 74 75 64 76 77 78 88 89 90 87 80 79 62 63 61 60 59 81 58 57 82 86 85 84 51 50 52 54 53 83 56 55 49 48 47 43 42 39 41 40 38 37 36 35 34 33 32 30 31 29 28 27 26 25 24 21 22 23 12 13 14 15 16 11 10 9 7 8 17 18 19 20 568 569 570 567 474 473 472 471 470 496 497 519 518 495 494 524 525 493 492 491 490 529 528 527 526 523 522 521 520 517 516 515 514 513 512 511 510 509 506 507 508 302 301 303 304 307 505 504 503 502 498 501 500 499 453 452 461 462 463 464 465 466 467 469 468 571 573 572 6 5 0 4 3 2 1 460 459 458 457 456 455 454 438 437 436 435 434 433 432 430 431 429 428 427 426 425 424 423 422 421 420 419 417 418 410 411 412 355 354 353 413 414 416 415 352 351 350 349 348 347 362 363 361 360 359 358 357 356 402 401 403 404 400 399 406 405 407 408 409 385 384 383 382 386 387 388 389 390 392 391 393 394 397 398 370 369 368 367 365 364 346 345 344 343 342 366 329 328 327 326 325 324 323 322 372 371 396 395 375 376 377 378 379 380 381 447 448 449 446 442 445 444 443 439 440 441 450 451 311 310 309 308 312 313 316 314 315 374 373 317 318 305 306 319 320 321 297 298 267 270 296 295 294 293 292 291 330 331 332 333 340 341 339 338 337 336 335 334 283 284 285 286 287 280 281 282 279 278 277 276 288 289 290 275 274 273 272 269 268 271 266 265 264 263 262 261 260 259 258 299 300 257 256 255 253 254 252 251 250 249 248 241 242 243 244 245 247 246 238 239 240 237 236 235 234 232 233 530 531 532 533 231 225 226 219 218 220 221 222 224 223 217